\ This file has been generated by DOcplex
\ ENCODING=ISO-8859-1
\Problem name: Orandom24742_6.lp

Minimize
 obj: - 24.000000089077 x0 - 12.000000044539 x1 - 6.000000022269 x2
      - 32.000000089077 x3 - 16.000000044539 x4 - 8.000000022269 x5 + [
      48.000000050901 x0^2 + 48.000000050901 x0*x1 + 24.000000025451 x0*x2
      + 32.000000101803 x0*x3 + 16.000000050901 x0*x4 + 8.000000025451 x0*x5
      + 12.000000012725 x1^2 + 12.000000012725 x1*x2 + 16.000000050901 x1*x3
      + 8.000000025451 x1*x4 + 4.000000012725 x1*x5 + 3.000000003181 x2^2
      + 8.000000025451 x2*x3 + 4.000000012725 x2*x4 + 2.000000006363 x2*x5
      + 16.000000050901 x3^2 + 16.000000050901 x3*x4 + 8.000000025451 x3*x5
      + 4.000000012725 x4^2 + 4.000000012725 x4*x5 + 1.000000003181 x5^2 ]/2 +
      24.500000077943
Subject To

Bounds
 0 <= x0 <= 1
 0 <= x1 <= 1
 0 <= x2 <= 1
 0 <= x3 <= 1
 0 <= x4 <= 1
 0 <= x5 <= 1

Binaries
 x0 x1 x2 x3 x4 x5
End
